Cu9 Pd6 Y1                              
   1.00000000000000     
     6.0763551835476637    0.0000000000000000    0.0000000000000000
     0.0000000000000000    6.0763551835476637    0.0000000000000000
     0.0000000000000000    0.0000000000000000    6.0763551835476637
   Cu   Pd   Y 
     9     6     1
Direct
  0.9842039083936100  0.9842039083936100  0.9842039083936100
  0.9842039083936100  0.9842039083936100  0.5157960916063900
  0.9842039083936100  0.5157960916063900  0.9842039083936100
  0.9842039083936100  0.5157960916063900  0.5157960916063900
  0.5157960916063900  0.9842039083936100  0.9842039083936100
  0.5157960916063900  0.9842039083936100  0.5157960916063900
  0.5157960916063900  0.5157960916063900  0.9842039083936100
  0.5157960916063900  0.5157960916063900  0.5157960916063900
  0.7500000000000000  0.7500000000000000  0.7500000000000000
  0.2500000000000000  0.2500000000000000  0.7500000000000000
  0.2500000000000000  0.7500000000000000  0.2500000000000000
  0.2500000000000000  0.7500000000000000  0.7500000000000000
  0.7500000000000000  0.2500000000000000  0.2500000000000000
  0.7500000000000000  0.2500000000000000  0.7500000000000000
  0.7500000000000000  0.7500000000000000  0.2500000000000000
  0.2500000000000000  0.2500000000000000  0.2500000000000000
 
  0.00000000E+00  0.00000000E+00  0.00000000E+00
  0.00000000E+00  0.00000000E+00  0.00000000E+00
  0.00000000E+00  0.00000000E+00  0.00000000E+00
  0.00000000E+00  0.00000000E+00  0.00000000E+00
  0.00000000E+00  0.00000000E+00  0.00000000E+00
  0.00000000E+00  0.00000000E+00  0.00000000E+00
  0.00000000E+00  0.00000000E+00  0.00000000E+00
  0.00000000E+00  0.00000000E+00  0.00000000E+00
  0.00000000E+00  0.00000000E+00  0.00000000E+00
  0.00000000E+00  0.00000000E+00  0.00000000E+00
  0.00000000E+00  0.00000000E+00  0.00000000E+00
  0.00000000E+00  0.00000000E+00  0.00000000E+00
  0.00000000E+00  0.00000000E+00  0.00000000E+00
  0.00000000E+00  0.00000000E+00  0.00000000E+00
  0.00000000E+00  0.00000000E+00  0.00000000E+00
  0.00000000E+00  0.00000000E+00  0.00000000E+00
