Cu9 Pd6 Y1                              
   1.00000000000000     
     6.0781173963793309    0.0000000000000000   -0.0000000000000000
    -0.0000000000000000    6.0781173963793309    0.0000000000000000
     0.0000000000000000   -0.0000000000000000    6.0781173963793309
   Cu   Pd   Y 
     9     6     1
Direct
  0.9842125917047372  0.9842125917047372  0.9842125917047372
  0.9842125917047372  0.9842125917047372  0.5157874082952628
  0.9842125917047372  0.5157874082952628  0.9842125917047372
  0.9842125917047372  0.5157874082952628  0.5157874082952628
  0.5157874082952628  0.9842125917047372  0.9842125917047372
  0.5157874082952628  0.9842125917047372  0.5157874082952628
  0.5157874082952628  0.5157874082952628  0.9842125917047372
  0.5157874082952628  0.5157874082952628  0.5157874082952628
  0.7500000000000000  0.7500000000000000  0.7500000000000000
  0.2500000000000000  0.2500000000000000  0.7500000000000000
  0.2500000000000000  0.7500000000000000  0.2500000000000000
  0.2500000000000000  0.7500000000000000  0.7500000000000000
  0.7500000000000000  0.2500000000000000  0.2500000000000000
  0.7500000000000000  0.2500000000000000  0.7500000000000000
  0.7500000000000000  0.7500000000000000  0.2500000000000000
  0.2500000000000000  0.2500000000000000  0.2500000000000000
 
  0.00000000E+00  0.00000000E+00  0.00000000E+00
  0.00000000E+00  0.00000000E+00  0.00000000E+00
  0.00000000E+00  0.00000000E+00  0.00000000E+00
  0.00000000E+00  0.00000000E+00  0.00000000E+00
  0.00000000E+00  0.00000000E+00  0.00000000E+00
  0.00000000E+00  0.00000000E+00  0.00000000E+00
  0.00000000E+00  0.00000000E+00  0.00000000E+00
  0.00000000E+00  0.00000000E+00  0.00000000E+00
  0.00000000E+00  0.00000000E+00  0.00000000E+00
  0.00000000E+00  0.00000000E+00  0.00000000E+00
  0.00000000E+00  0.00000000E+00  0.00000000E+00
  0.00000000E+00  0.00000000E+00  0.00000000E+00
  0.00000000E+00  0.00000000E+00  0.00000000E+00
  0.00000000E+00  0.00000000E+00  0.00000000E+00
  0.00000000E+00  0.00000000E+00  0.00000000E+00
  0.00000000E+00  0.00000000E+00  0.00000000E+00
