Cu9 Pd6 Y1                              
   1.00000000000000     
     6.0099420448966150    0.0000000000000000   -0.0000000000000000
    -0.0000000000000000    6.1229238913052351    0.0000000000000001
    -0.0000000000000000   -0.0000000000000001    6.1229238913052351
   Cu   Pd   Y 
     9     6     1
Direct
  0.9940671186462005  0.9854278262424438  0.9854278262424438
  0.9940671186462005  0.9854278262424438  0.5145721737575562
  0.9940671186462005  0.5145721737575562  0.9854278262424438
  0.9940671186462005  0.5145721737575562  0.5145721737575562
  0.5059328813537995  0.9854278262424438  0.9854278262424438
  0.5059328813537995  0.9854278262424438  0.5145721737575562
  0.5059328813537995  0.5145721737575562  0.9854278262424438
  0.5059328813537995  0.5145721737575562  0.5145721737575562
  0.2500000000000000  0.7500000000000000  0.7500000000000000
  0.2500000000000000  0.2500000000000000  0.7500000000000000
  0.2500000000000000  0.7500000000000000  0.2500000000000000
  0.7500000000000000  0.2500000000000000  0.2500000000000000
  0.7500000000000000  0.2500000000000000  0.7500000000000000
  0.7500000000000000  0.7500000000000000  0.2500000000000000
  0.7500000000000000  0.7500000000000000  0.7500000000000000
  0.2500000000000000  0.2500000000000000  0.2500000000000000
 
  0.00000000E+00  0.00000000E+00  0.00000000E+00
  0.00000000E+00  0.00000000E+00  0.00000000E+00
  0.00000000E+00  0.00000000E+00  0.00000000E+00
  0.00000000E+00  0.00000000E+00  0.00000000E+00
  0.00000000E+00  0.00000000E+00  0.00000000E+00
  0.00000000E+00  0.00000000E+00  0.00000000E+00
  0.00000000E+00  0.00000000E+00  0.00000000E+00
  0.00000000E+00  0.00000000E+00  0.00000000E+00
  0.00000000E+00  0.00000000E+00  0.00000000E+00
  0.00000000E+00  0.00000000E+00  0.00000000E+00
  0.00000000E+00  0.00000000E+00  0.00000000E+00
  0.00000000E+00  0.00000000E+00  0.00000000E+00
  0.00000000E+00  0.00000000E+00  0.00000000E+00
  0.00000000E+00  0.00000000E+00  0.00000000E+00
  0.00000000E+00  0.00000000E+00  0.00000000E+00
  0.00000000E+00  0.00000000E+00  0.00000000E+00
