Cu9 Pd6 Y1
1.0
        6.017101912          0.0000000000         0.0000000000
        0.0000000000         6.017101912          0.0000000000
        0.0000000000         0.0000000000         6.017101912
   Cu   Pd    Y
    9    6    1
Direct
   0.000000     0.000000     0.000000    Cu
   0.000000     0.000000     0.500000    Cu
   0.000000     0.500000     0.000000    Cu
   0.000000     0.500000     0.500000    Cu
   0.500000     0.000000     0.000000    Cu
   0.500000     0.000000     0.500000    Cu
   0.500000     0.500000     0.000000    Cu
   0.500000     0.500000     0.500000    Cu
   0.250000     0.750000     0.750000    Cu
   0.250000     0.250000     0.750000    Pd
   0.250000     0.750000     0.250000    Pd 
   0.750000     0.250000     0.250000    Pd
   0.750000     0.250000     0.750000    Pd
   0.750000     0.750000     0.250000    Pd
   0.750000     0.750000     0.750000    Pd
   0.250000     0.250000     0.250000    Y
