Cu9 Pd6 Y1                              
   1.00000000000000     
     5.7274237722957935   -0.0000000000000001    0.0000000000000000
     0.0000000000000000    5.7274237722957935    0.0000000000000000
     0.0000000000000000    0.0000000000000000    6.8960095403469168
   Cu   Pd   Y 
     9     6     1
Direct
  0.9905923068911662  0.9905923068911662  0.9886937494560399
  0.9905923068911662  0.9905923068911662  0.5113062505439601
  0.9905923068911662  0.5094076931088338  0.9886937494560399
  0.9905923068911662  0.5094076931088338  0.5113062505439601
  0.5094076931088338  0.9905923068911662  0.9886937494560399
  0.5094076931088338  0.9905923068911662  0.5113062505439601
  0.5094076931088338  0.5094076931088338  0.9886937494560399
  0.5094076931088338  0.5094076931088338  0.5113062505439601
  0.2500000000000000  0.2500000000000000  0.7500000000000000
  0.2500000000000000  0.7500000000000000  0.2500000000000000
  0.2500000000000000  0.7500000000000000  0.7500000000000000
  0.7500000000000000  0.2500000000000000  0.2500000000000000
  0.7500000000000000  0.2500000000000000  0.7500000000000000
  0.7500000000000000  0.7500000000000000  0.2500000000000000
  0.7500000000000000  0.7500000000000000  0.7500000000000000
  0.2500000000000000  0.2500000000000000  0.2500000000000000
 
  0.00000000E+00  0.00000000E+00  0.00000000E+00
  0.00000000E+00  0.00000000E+00  0.00000000E+00
  0.00000000E+00  0.00000000E+00  0.00000000E+00
  0.00000000E+00  0.00000000E+00  0.00000000E+00
  0.00000000E+00  0.00000000E+00  0.00000000E+00
  0.00000000E+00  0.00000000E+00  0.00000000E+00
  0.00000000E+00  0.00000000E+00  0.00000000E+00
  0.00000000E+00  0.00000000E+00  0.00000000E+00
  0.00000000E+00  0.00000000E+00  0.00000000E+00
  0.00000000E+00  0.00000000E+00  0.00000000E+00
  0.00000000E+00  0.00000000E+00  0.00000000E+00
  0.00000000E+00  0.00000000E+00  0.00000000E+00
  0.00000000E+00  0.00000000E+00  0.00000000E+00
  0.00000000E+00  0.00000000E+00  0.00000000E+00
  0.00000000E+00  0.00000000E+00  0.00000000E+00
  0.00000000E+00  0.00000000E+00  0.00000000E+00
