SYSTEM = Cu9Pd6Y1 static calculation
ALGO = Normal
EDIFF = 1e-06
EDIFFG = -0.001
ISTART = 1
ENCUT = 520.0
IBRION = 2
ISIF = 3
ISMEAR = 1
ISPIN = 2
LASPH = True
LMAXMIX = 4
LORBIT = 11
LREAL = Auto
LCHARGE = True
LWAVE = False
MAGMOM = 16*0.6
NELM = 100
NSW = 0
PREC = Accurate
SIGMA = 0.2
NCORE = 4
