Cu9 Pd6 Y1                              
   1.00000000000000     
     5.7274237722957935   -0.0000000000000001   -0.0000000000000000
     0.0000000000000000    5.7274237722957935   -0.0000000000000000
    -0.0000000000000000   -0.0000000000000000    6.8960095403469168
   Cu   Pd   Y 
     9     6     1
Direct
  0.9905923068911633  0.9905923068911633  0.9886937494560368
  0.9905923068911633  0.9905923068911633  0.5113062505439632
  0.9905923068911633  0.5094076931088367  0.9886937494560368
  0.9905923068911633  0.5094076931088367  0.5113062505439632
  0.5094076931088367  0.9905923068911633  0.9886937494560368
  0.5094076931088367  0.9905923068911633  0.5113062505439632
  0.5094076931088367  0.5094076931088367  0.9886937494560368
  0.5094076931088367  0.5094076931088367  0.5113062505439632
  0.2500000000000000  0.2500000000000000  0.7500000000000000
  0.2500000000000000  0.7500000000000000  0.2500000000000000
  0.2500000000000000  0.7500000000000000  0.7500000000000000
  0.7500000000000000  0.2500000000000000  0.2500000000000000
  0.7500000000000000  0.2500000000000000  0.7500000000000000
  0.7500000000000000  0.7500000000000000  0.2500000000000000
  0.7500000000000000  0.7500000000000000  0.7500000000000000
  0.2500000000000000  0.2500000000000000  0.2500000000000000
 
  0.00000000E+00  0.00000000E+00  0.00000000E+00
  0.00000000E+00  0.00000000E+00  0.00000000E+00
  0.00000000E+00  0.00000000E+00  0.00000000E+00
  0.00000000E+00  0.00000000E+00  0.00000000E+00
  0.00000000E+00  0.00000000E+00  0.00000000E+00
  0.00000000E+00  0.00000000E+00  0.00000000E+00
  0.00000000E+00  0.00000000E+00  0.00000000E+00
  0.00000000E+00  0.00000000E+00  0.00000000E+00
  0.00000000E+00  0.00000000E+00  0.00000000E+00
  0.00000000E+00  0.00000000E+00  0.00000000E+00
  0.00000000E+00  0.00000000E+00  0.00000000E+00
  0.00000000E+00  0.00000000E+00  0.00000000E+00
  0.00000000E+00  0.00000000E+00  0.00000000E+00
  0.00000000E+00  0.00000000E+00  0.00000000E+00
  0.00000000E+00  0.00000000E+00  0.00000000E+00
  0.00000000E+00  0.00000000E+00  0.00000000E+00
